c description: Tseitin formula on , with even charge
c generator: CNFgen (0.9.0)
c copyright: (C) 2012-2020 Massimo Lauria <massimo.lauria@uniroma1.it>
c url: https://massimolauria.net/cnfgen
c
p cnf 40 332
1 2 3 4 5 -6 0
1 2 3 4 -5 6 0
1 2 3 -4 5 6 0
1 2 3 -4 -5 -6 0
1 2 -3 4 5 6 0
1 2 -3 4 -5 -6 0
1 2 -3 -4 5 -6 0
1 2 -3 -4 -5 6 0
1 -2 3 4 5 6 0
1 -2 3 4 -5 -6 0
1 -2 3 -4 5 -6 0
1 -2 3 -4 -5 6 0
1 -2 -3 4 5 -6 0
1 -2 -3 4 -5 6 0
1 -2 -3 -4 5 6 0
1 -2 -3 -4 -5 -6 0
-1 2 3 4 5 6 0
-1 2 3 4 -5 -6 0
-1 2 3 -4 5 -6 0
-1 2 3 -4 -5 6 0
-1 2 -3 4 5 -6 0
-1 2 -3 4 -5 6 0
-1 2 -3 -4 5 6 0
-1 2 -3 -4 -5 -6 0
-1 -2 3 4 5 -6 0
-1 -2 3 4 -5 6 0
-1 -2 3 -4 5 6 0
-1 -2 3 -4 -5 -6 0
-1 -2 -3 4 5 6 0
-1 -2 -3 4 -5 -6 0
-1 -2 -3 -4 5 -6 0
-1 -2 -3 -4 -5 6 0
7 8 9 10 -11 0
7 8 9 -10 11 0
7 8 -9 10 11 0
7 8 -9 -10 -11 0
7 -8 9 10 11 0
7 -8 9 -10 -11 0
7 -8 -9 10 -11 0
7 -8 -9 -10 11 0
-7 8 9 10 11 0
-7 8 9 -10 -11 0
-7 8 -9 10 -11 0
-7 8 -9 -10 11 0
-7 -8 9 10 -11 0
-7 -8 9 -10 11 0
-7 -8 -9 10 11 0
-7 -8 -9 -10 -11 0
1 12 13 -14 0
1 12 -13 14 0
1 -12 13 14 0
1 -12 -13 -14 0
-1 12 13 14 0
-1 12 -13 -14 0
-1 -12 13 -14 0
-1 -12 -13 14 0
2 15 16 17 -18 0
2 15 16 -17 18 0
2 15 -16 17 18 0
2 15 -16 -17 -18 0
2 -15 16 17 18 0
2 -15 16 -17 -18 0
2 -15 -16 17 -18 0
2 -15 -16 -17 18 0
-2 15 16 17 18 0
-2 15 16 -17 -18 0
-2 15 -16 17 -18 0
-2 15 -16 -17 18 0
-2 -15 16 17 -18 0
-2 -15 16 -17 18 0
-2 -15 -16 17 18 0
-2 -15 -16 -17 -18 0
7 12 -19 0
7 -12 19 0
-7 12 19 0
-7 -12 -19 0
3 -20 0
-3 20 0
15 21 -22 0
15 -21 22 0
-15 21 22 0
-15 -21 -22 0
8 23 24 25 26 27 28 -29 0
8 23 24 25 26 27 -28 29 0
8 23 24 25 26 -27 28 29 0
8 23 24 25 26 -27 -28 -29 0
8 23 24 25 -26 27 28 29 0
8 23 24 25 -26 27 -28 -29 0
8 23 24 25 -26 -27 28 -29 0
8 23 24 25 -26 -27 -28 29 0
8 23 24 -25 26 27 28 29 0
8 23 24 -25 26 27 -28 -29 0
8 23 24 -25 26 -27 28 -29 0
8 23 24 -25 26 -27 -28 29 0
8 23 24 -25 -26 27 28 -29 0
8 23 24 -25 -26 27 -28 29 0
8 23 24 -25 -26 -27 28 29 0
8 23 24 -25 -26 -27 -28 -29 0
8 23 -24 25 26 27 28 29 0
8 23 -24 25 26 27 -28 -29 0
8 23 -24 25 26 -27 28 -29 0
8 23 -24 25 26 -27 -28 29 0
8 23 -24 25 -26 27 28 -29 0
8 23 -24 25 -26 27 -28 29 0
8 23 -24 25 -26 -27 28 29 0
8 23 -24 25 -26 -27 -28 -29 0
8 23 -24 -25 26 27 28 -29 0
8 23 -24 -25 26 27 -28 29 0
8 23 -24 -25 26 -27 28 29 0
8 23 -24 -25 26 -27 -28 -29 0
8 23 -24 -25 -26 27 28 29 0
8 23 -24 -25 -26 27 -28 -29 0
8 23 -24 -25 -26 -27 28 -29 0
8 23 -24 -25 -26 -27 -28 29 0
8 -23 24 25 26 27 28 29 0
8 -23 24 25 26 27 -28 -29 0
8 -23 24 25 26 -27 28 -29 0
8 -23 24 25 26 -27 -28 29 0
8 -23 24 25 -26 27 28 -29 0
8 -23 24 25 -26 27 -28 29 0
8 -23 24 25 -26 -27 28 29 0
8 -23 24 25 -26 -27 -28 -29 0
8 -23 24 -25 26 27 28 -29 0
8 -23 24 -25 26 27 -28 29 0
8 -23 24 -25 26 -27 28 29 0
8 -23 24 -25 26 -27 -28 -29 0
8 -23 24 -25 -26 27 28 29 0
8 -23 24 -25 -26 27 -28 -29 0
8 -23 24 -25 -26 -27 28 -29 0
8 -23 24 -25 -26 -27 -28 29 0
8 -23 -24 25 26 27 28 -29 0
8 -23 -24 25 26 27 -28 29 0
8 -23 -24 25 26 -27 28 29 0
8 -23 -24 25 26 -27 -28 -29 0
8 -23 -24 25 -26 27 28 29 0
8 -23 -24 25 -26 27 -28 -29 0
8 -23 -24 25 -26 -27 28 -29 0
8 -23 -24 25 -26 -27 -28 29 0
8 -23 -24 -25 26 27 28 29 0
8 -23 -24 -25 26 27 -28 -29 0
8 -23 -24 -25 26 -27 28 -29 0
8 -23 -24 -25 26 -27 -28 29 0
8 -23 -24 -25 -26 27 28 -29 0
8 -23 -24 -25 -26 27 -28 29 0
8 -23 -24 -25 -26 -27 28 29 0
8 -23 -24 -25 -26 -27 -28 -29 0
-8 23 24 25 26 27 28 29 0
-8 23 24 25 26 27 -28 -29 0
-8 23 24 25 26 -27 28 -29 0
-8 23 24 25 26 -27 -28 29 0
-8 23 24 25 -26 27 28 -29 0
-8 23 24 25 -26 27 -28 29 0
-8 23 24 25 -26 -27 28 29 0
-8 23 24 25 -26 -27 -28 -29 0
-8 23 24 -25 26 27 28 -29 0
-8 23 24 -25 26 27 -28 29 0
-8 23 24 -25 26 -27 28 29 0
-8 23 24 -25 26 -27 -28 -29 0
-8 23 24 -25 -26 27 28 29 0
-8 23 24 -25 -26 27 -28 -29 0
-8 23 24 -25 -26 -27 28 -29 0
-8 23 24 -25 -26 -27 -28 29 0
-8 23 -24 25 26 27 28 -29 0
-8 23 -24 25 26 27 -28 29 0
-8 23 -24 25 26 -27 28 29 0
-8 23 -24 25 26 -27 -28 -29 0
-8 23 -24 25 -26 27 28 29 0
-8 23 -24 25 -26 27 -28 -29 0
-8 23 -24 25 -26 -27 28 -29 0
-8 23 -24 25 -26 -27 -28 29 0
-8 23 -24 -25 26 27 28 29 0
-8 23 -24 -25 26 27 -28 -29 0
-8 23 -24 -25 26 -27 28 -29 0
-8 23 -24 -25 26 -27 -28 29 0
-8 23 -24 -25 -26 27 28 -29 0
-8 23 -24 -25 -26 27 -28 29 0
-8 23 -24 -25 -26 -27 28 29 0
-8 23 -24 -25 -26 -27 -28 -29 0
-8 -23 24 25 26 27 28 -29 0
-8 -23 24 25 26 27 -28 29 0
-8 -23 24 25 26 -27 28 29 0
-8 -23 24 25 26 -27 -28 -29 0
-8 -23 24 25 -26 27 28 29 0
-8 -23 24 25 -26 27 -28 -29 0
-8 -23 24 25 -26 -27 28 -29 0
-8 -23 24 25 -26 -27 -28 29 0
-8 -23 24 -25 26 27 28 29 0
-8 -23 24 -25 26 27 -28 -29 0
-8 -23 24 -25 26 -27 28 -29 0
-8 -23 24 -25 26 -27 -28 29 0
-8 -23 24 -25 -26 27 28 -29 0
-8 -23 24 -25 -26 27 -28 29 0
-8 -23 24 -25 -26 -27 28 29 0
-8 -23 24 -25 -26 -27 -28 -29 0
-8 -23 -24 25 26 27 28 29 0
-8 -23 -24 25 26 27 -28 -29 0
-8 -23 -24 25 26 -27 28 -29 0
-8 -23 -24 25 26 -27 -28 29 0
-8 -23 -24 25 -26 27 28 -29 0
-8 -23 -24 25 -26 27 -28 29 0
-8 -23 -24 25 -26 -27 28 29 0
-8 -23 -24 25 -26 -27 -28 -29 0
-8 -23 -24 -25 26 27 28 -29 0
-8 -23 -24 -25 26 27 -28 29 0
-8 -23 -24 -25 26 -27 28 29 0
-8 -23 -24 -25 26 -27 -28 -29 0
-8 -23 -24 -25 -26 27 28 29 0
-8 -23 -24 -25 -26 27 -28 -29 0
-8 -23 -24 -25 -26 -27 28 -29 0
-8 -23 -24 -25 -26 -27 -28 29 0
20 -23 0
-20 23 0
13 19 24 -30 0
13 19 -24 30 0
13 -19 24 30 0
13 -19 -24 -30 0
-13 19 24 30 0
-13 19 -24 -30 0
-13 -19 24 -30 0
-13 -19 -24 30 0
4 9 16 25 -31 0
4 9 16 -25 31 0
4 9 -16 25 31 0
4 9 -16 -25 -31 0
4 -9 16 25 31 0
4 -9 16 -25 -31 0
4 -9 -16 25 -31 0
4 -9 -16 -25 31 0
-4 9 16 25 31 0
-4 9 16 -25 -31 0
-4 9 -16 25 -31 0
-4 9 -16 -25 31 0
-4 -9 16 25 -31 0
-4 -9 16 -25 31 0
-4 -9 -16 25 31 0
-4 -9 -16 -25 -31 0
32 33 -34 0
32 -33 34 0
-32 33 34 0
-32 -33 -34 0
17 26 32 35 36 -37 0
17 26 32 35 -36 37 0
17 26 32 -35 36 37 0
17 26 32 -35 -36 -37 0
17 26 -32 35 36 37 0
17 26 -32 35 -36 -37 0
17 26 -32 -35 36 -37 0
17 26 -32 -35 -36 37 0
17 -26 32 35 36 37 0
17 -26 32 35 -36 -37 0
17 -26 32 -35 36 -37 0
17 -26 32 -35 -36 37 0
17 -26 -32 35 36 -37 0
17 -26 -32 35 -36 37 0
17 -26 -32 -35 36 37 0
17 -26 -32 -35 -36 -37 0
-17 26 32 35 36 37 0
-17 26 32 35 -36 -37 0
-17 26 32 -35 36 -37 0
-17 26 32 -35 -36 37 0
-17 26 -32 35 36 -37 0
-17 26 -32 35 -36 37 0
-17 26 -32 -35 36 37 0
-17 26 -32 -35 -36 -37 0
-17 -26 32 35 36 -37 0
-17 -26 32 35 -36 37 0
-17 -26 32 -35 36 37 0
-17 -26 32 -35 -36 -37 0
-17 -26 -32 35 36 37 0
-17 -26 -32 35 -36 -37 0
-17 -26 -32 -35 36 -37 0
-17 -26 -32 -35 -36 37 0
18 35 -38 0
18 -35 38 0
-18 35 38 0
-18 -35 -38 0
10 30 -31 0
10 -30 31 0
-10 30 31 0
-10 -30 -31 0
27 36 39 -40 0
27 36 -39 40 0
27 -36 39 40 0
27 -36 -39 -40 0
-27 36 39 40 0
-27 36 -39 -40 0
-27 -36 39 -40 0
-27 -36 -39 40 0
11 -33 0
-11 33 0
5 21 28 34 37 -38 0
5 21 28 34 -37 38 0
5 21 28 -34 37 38 0
5 21 28 -34 -37 -38 0
5 21 -28 34 37 38 0
5 21 -28 34 -37 -38 0
5 21 -28 -34 37 -38 0
5 21 -28 -34 -37 38 0
5 -21 28 34 37 38 0
5 -21 28 34 -37 -38 0
5 -21 28 -34 37 -38 0
5 -21 28 -34 -37 38 0
5 -21 -28 34 37 -38 0
5 -21 -28 34 -37 38 0
5 -21 -28 -34 37 38 0
5 -21 -28 -34 -37 -38 0
-5 21 28 34 37 38 0
-5 21 28 34 -37 -38 0
-5 21 28 -34 37 -38 0
-5 21 28 -34 -37 38 0
-5 21 -28 34 37 -38 0
-5 21 -28 34 -37 38 0
-5 21 -28 -34 37 38 0
-5 21 -28 -34 -37 -38 0
-5 -21 28 34 37 -38 0
-5 -21 28 34 -37 38 0
-5 -21 28 -34 37 38 0
-5 -21 28 -34 -37 -38 0
-5 -21 -28 34 37 38 0
-5 -21 -28 34 -37 -38 0
-5 -21 -28 -34 37 -38 0
-5 -21 -28 -34 -37 38 0
29 -39 0
-29 39 0
6 14 22 -40 0
6 14 -22 40 0
6 -14 22 40 0
6 -14 -22 -40 0
-6 14 22 40 0
-6 14 -22 -40 0
-6 -14 22 -40 0
-6 -14 -22 40 0